 vasp.5.4.4.18Apr17-6-g9f103f2a35 (build Dec 13 2020 03:13:36) complex

 executed on             LinuxIFC date 2021.01.29  19:06:58

 INCAR:
 POTCAR:    PAW_PBE Mo_sv 02Feb2006
 POTCAR:    PAW_PBE S 06Sep2000

 POTCAR:    PAW_PBE Mo_sv 02Feb2006

 POTCAR:    PAW_PBE S 06Sep2000

 Optimization of the real space projectors (new method)

 maximal supplied QI-value         = 15.12
 optimisation between [QCUT,QGAM] = [ 11.34, 22.83] = [ 36.00,145.93] Ry
 Optimized for a Real-space Cutoff    1.56 Angstroem

   l    n(q)    QCUT    max X(q) W(low)/X(q) W(high)/X(q)  e(spline)
   0     11    11.338     3.559    0.12E-04    0.27E-04    0.22E-06
   0     11    11.338    20.730    0.39E-04    0.28E-04    0.24E-06
   1     10    11.338     3.279    0.28E-05    0.23E-05    0.28E-07
   1     10    11.338     4.693    0.50E-04    0.39E-04    0.26E-06
   2     10    11.338    67.616    0.16E-03    0.41E-03    0.73E-06
   2     10    11.338    62.420    0.16E-03    0.41E-03    0.74E-06
 Optimization of the real space projectors (new method)

 maximal supplied QI-value         = 19.84
 optimisation between [QCUT,QGAM] = [ 11.31, 22.82] = [ 35.82,145.81] Ry
 Optimized for a Real-space Cutoff    1.20 Angstroem

   l    n(q)    QCUT    max X(q) W(low)/X(q) W(high)/X(q)  e(spline)
   0      8    11.310   187.594    0.16E-03    0.19E-03    0.53E-07
   0      8    11.310   164.243    0.16E-03    0.19E-03    0.53E-07
   1      8    11.310    67.533    0.18E-03    0.19E-03    0.92E-07
   1      8    11.310    50.729    0.18E-03    0.19E-03    0.90E-07

  PAW_PBE Mo_sv 02Feb2006               :
  PAW_PBE S 06Sep2000                   :

 POSCAR: generated by phonopy
  positions in direct lattice
 exchange correlation table for  LEXCH =       43
   RHO(1)=    0.500       N(1)  =     2000
   RHO(2)=  100.500       N(2)  =     4000

 ion  position               nearest neighbor table
   1  0.067  0.133  0.186-  55 2.40  51 2.40  56 2.40  30 2.40  26 2.40  31 2.40   6 3.12   7 3.12
                            21 3.12  25 3.12   2 3.12   5 3.13
   2  0.267  0.133  0.186-  51 2.40  52 2.40  57 2.40  26 2.40  27 2.40  32 2.40   7 3.12   8 3.12
                            21 3.12  22 3.12   1 3.12   3 3.13
   3  0.467  0.133  0.186-  52 2.40  53 2.40  58 2.40  27 2.40  28 2.40  33 2.40   8 3.12   9 3.12
                            22 3.12  23 3.12   4 3.12   2 3.13
   4  0.667  0.133  0.186-  53 2.40  54 2.40  59 2.40  28 2.40  29 2.40  34 2.40   9 3.12  10 3.12
                            23 3.12  24 3.12   3 3.12   5 3.13
   5  0.867  0.133  0.186-  54 2.40  55 2.40  60 2.40  29 2.40  30 2.40  35 2.40  10 3.12   6 3.12
                            24 3.12  25 3.12   1 3.13   4 3.13
   6  0.067  0.333  0.186-  60 2.40  56 2.40  61 2.40  35 2.40  31 2.40  36 2.40   1 3.12   5 3.12
                            12 3.12  11 3.12   7 3.12  10 3.13
   7  0.267  0.333  0.186-  56 2.40  57 2.40  62 2.40  31 2.40  32 2.40  37 2.40   1 3.12   2 3.12
                            12 3.12  13 3.12   6 3.12   8 3.13
   8  0.467  0.333  0.186-  57 2.40  58 2.40  63 2.40  32 2.40  33 2.40  38 2.40   3 3.12   2 3.12
                            14 3.12  13 3.12   9 3.12   7 3.13
   9  0.667  0.333  0.186-  58 2.40  59 2.40  64 2.40  33 2.40  34 2.40  39 2.40   3 3.12   4 3.12
                            14 3.12  15 3.12   8 3.12  10 3.13
  10  0.867  0.333  0.186-  59 2.40  60 2.40  65 2.40  34 2.40  35 2.40  40 2.40   5 3.12   4 3.12
                            11 3.12  15 3.12   6 3.13   9 3.13
  11  0.067  0.533  0.186-  65 2.40  61 2.40  66 2.40  40 2.40  36 2.40  41 2.40  17 3.12  10 3.12
                            16 3.12   6 3.12  12 3.12  15 3.13
  12  0.267  0.533  0.186-  61 2.40  62 2.40  67 2.40  36 2.40  37 2.40  42 2.40   6 3.12   7 3.12
                            17 3.12  18 3.12  11 3.12  13 3.13
  13  0.467  0.533  0.186-  62 2.40  63 2.40  68 2.40  37 2.40  38 2.40  43 2.40  19 3.12   8 3.12
                            18 3.12   7 3.12  14 3.12  12 3.13
  14  0.667  0.533  0.186-  63 2.40  64 2.40  69 2.40  38 2.40  39 2.40  44 2.40   8 3.12   9 3.12
                            19 3.12  20 3.12  13 3.12  15 3.13
  15  0.867  0.533  0.186-  64 2.40  65 2.40  70 2.40  39 2.40  40 2.40  45 2.40  16 3.12  20 3.12
                             9 3.12  10 3.12  11 3.13  14 3.13
  16  0.067  0.733  0.186-  70 2.40  66 2.40  71 2.40  45 2.40  41 2.40  46 2.40  21 3.12  22 3.12
                            11 3.12  15 3.12  17 3.12  20 3.13
  17  0.267  0.733  0.186-  66 2.40  67 2.40  72 2.40  41 2.40  42 2.40  47 2.40  22 3.12  23 3.12
                            11 3.12  12 3.12  16 3.12  18 3.13
  18  0.467  0.733  0.186-  67 2.40  68 2.40  73 2.40  42 2.40  43 2.40  48 2.40  23 3.12  24 3.12
                            12 3.12  13 3.12  19 3.12  17 3.13
  19  0.667  0.733  0.186-  68 2.40  69 2.40  74 2.40  43 2.40  44 2.40  49 2.40  24 3.12  25 3.12
                            13 3.12  14 3.12  18 3.12  20 3.13
  20  0.867  0.733  0.186-  69 2.40  70 2.40  75 2.40  44 2.40  45 2.40  50 2.40  25 3.12  21 3.12
                            14 3.12  15 3.12  16 3.13  19 3.13
  21  0.067  0.933  0.186-  75 2.40  71 2.40  51 2.40  50 2.40  46 2.40  26 2.40  16 3.12  20 3.12
                             2 3.12   1 3.12  22 3.12  25 3.13
  22  0.267  0.933  0.186-  71 2.40  72 2.40  52 2.40  46 2.40  47 2.40  27 2.40  16 3.12  17 3.12
                             2 3.12   3 3.12  21 3.12  23 3.13
  23  0.467  0.933  0.186-  72 2.40  73 2.40  53 2.40  47 2.40  48 2.40  28 2.40  18 3.12  17 3.12
                             4 3.12   3 3.12  24 3.12  22 3.13
  24  0.667  0.933  0.186-  73 2.40  74 2.40  54 2.40  48 2.40  49 2.40  29 2.40  18 3.12  19 3.12
                             4 3.12   5 3.12  23 3.12  25 3.13
  25  0.867  0.933  0.186-  74 2.40  75 2.40  55 2.40  49 2.40  50 2.40  30 2.40  20 3.12  19 3.12
                             1 3.12   5 3.12  21 3.13  24 3.13
  26  0.133  0.067  0.107-   2 2.40   1 2.40  21 2.40
  27  0.333  0.067  0.107-   3 2.40   2 2.40  22 2.40
  28  0.533  0.067  0.107-   4 2.40   3 2.40  23 2.40
  29  0.733  0.067  0.107-   5 2.40   4 2.40  24 2.40
  30  0.933  0.067  0.107-   1 2.40   5 2.40  25 2.40
  31  0.133  0.267  0.107-   7 2.40   6 2.40   1 2.40
  32  0.333  0.267  0.107-   8 2.40   7 2.40   2 2.40
  33  0.533  0.267  0.107-   9 2.40   8 2.40   3 2.40
  34  0.733  0.267  0.107-  10 2.40   9 2.40   4 2.40
  35  0.933  0.267  0.107-   6 2.40  10 2.40   5 2.40
  36  0.133  0.467  0.107-  12 2.40  11 2.40   6 2.40
  37  0.333  0.467  0.107-  13 2.40  12 2.40   7 2.40
  38  0.533  0.467  0.107-  14 2.40  13 2.40   8 2.40
  39  0.733  0.467  0.107-  15 2.40  14 2.40   9 2.40
  40  0.933  0.467  0.107-  11 2.40  15 2.40  10 2.40
  41  0.133  0.667  0.107-  17 2.40  16 2.40  11 2.40
  42  0.333  0.667  0.107-  18 2.40  17 2.40  12 2.40
  43  0.533  0.667  0.107-  19 2.40  18 2.40  13 2.40
  44  0.733  0.667  0.107-  20 2.40  19 2.40  14 2.40
  45  0.933  0.667  0.107-  16 2.40  20 2.40  15 2.40
  46  0.133  0.867  0.107-  22 2.40  21 2.40  16 2.40
  47  0.333  0.867  0.107-  23 2.40  22 2.40  17 2.40
  48  0.533  0.867  0.107-  24 2.40  23 2.40  18 2.40
  49  0.733  0.867  0.107-  25 2.40  24 2.40  19 2.40
  50  0.933  0.867  0.107-  21 2.40  25 2.40  20 2.40
  51  0.133  0.067  0.265-   2 2.40   1 2.40  21 2.40
  52  0.333  0.067  0.265-   3 2.40   2 2.40  22 2.40
  53  0.533  0.067  0.265-   4 2.40   3 2.40  23 2.40
  54  0.733  0.067  0.265-   5 2.40   4 2.40  24 2.40
  55  0.933  0.067  0.265-   1 2.40   5 2.40  25 2.40
  56  0.133  0.267  0.265-   7 2.40   6 2.40   1 2.40
  57  0.333  0.267  0.265-   8 2.40   7 2.40   2 2.40
  58  0.533  0.267  0.265-   9 2.40   8 2.40   3 2.40
  59  0.733  0.267  0.265-  10 2.40   9 2.40   4 2.40
  60  0.933  0.267  0.265-   6 2.40  10 2.40   5 2.40
  61  0.133  0.467  0.265-  12 2.40  11 2.40   6 2.40
  62  0.333  0.467  0.265-  13 2.40  12 2.40   7 2.40
  63  0.533  0.467  0.265-  14 2.40  13 2.40   8 2.40
  64  0.733  0.467  0.265-  15 2.40  14 2.40   9 2.40
  65  0.933  0.467  0.265-  11 2.40  15 2.40  10 2.40
  66  0.133  0.667  0.265-  17 2.40  16 2.40  11 2.40
  67  0.333  0.667  0.265-  18 2.40  17 2.40  12 2.40
  68  0.533  0.667  0.265-  19 2.40  18 2.40  13 2.40
  69  0.733  0.667  0.265-  20 2.40  19 2.40  14 2.40
  70  0.933  0.667  0.265-  16 2.40  20 2.40  15 2.40
  71  0.133  0.867  0.265-  22 2.40  21 2.40  16 2.40
  72  0.333  0.867  0.265-  23 2.40  22 2.40  17 2.40
  73  0.533  0.867  0.265-  24 2.40  23 2.40  18 2.40
  74  0.733  0.867  0.265-  25 2.40  24 2.40  19 2.40
  75  0.933  0.867  0.265-  21 2.40  25 2.40  20 2.40

  LATTYP: Found a hexagonal cell.
 ALAT       =    15.6249999999
 C/A-ratio  =     1.2800000000

  Lattice vectors:

 A1 = (  15.6250000000,   0.0000000000,   0.0000000000)
 A2 = (  -7.8125000000,  13.5316469340,   0.0000000000)
 A3 = (   0.0000000000,   0.0000000000,  20.0000000000)

Analysis of symmetry for initial positions (statically):
 Subroutine PRICEL returns following result:

[...]

  25 primitive cells build up your supercell.

 Routine SETGRP: Setting up the symmetry group for a
 hexagonal supercell.

 Subroutine GETGRP returns: Found 12 space group operations
 (whereof  6 operations were pure point group operations)
 out of a pool of 24 trial point group operations.

The static configuration has the point symmetry C_3v.
 The point group associated with its full space group is D_3h.

Analysis of symmetry for dynamics (positions and initial velocities):
 Subroutine PRICEL returns following result:

[...]

The dynamic configuration has the point symmetry C_3v.
 The point group associated with its full space group is D_3h.

Analysis of structural, dynamic, and magnetic symmetry:
 Subroutine PRICEL returns following result:

  LATTYP: Found a hexagonal cell.
 ALAT       =     3.1250000000
 C/A-ratio  =     6.4000000000

  Lattice vectors:

 A1 = (   3.1250000000,   0.0000000000,   0.0000000000)
 A2 = (  -1.5625000000,   2.7063293868,   0.0000000000)
 A3 = (   0.0000000000,   0.0000000000,  20.0000000000)

  25 primitive cells build up your supercell.

 Routine SETGRP: Setting up the symmetry group for a
 hexagonal supercell.

 Subroutine GETGRP returns: Found 12 space group operations
 (whereof  6 operations were pure point group operations)
 out of a pool of 24 trial point group operations.

The magnetic configuration has the point symmetry C_3v.
 The point group associated with its full space group is D_3h.

 Subroutine INISYM returns: Found 12 space group operations
 (whereof  6 operations are pure point group operations),
 and found    25 'primitive' translations

 KPOINTS: K-Point Grid Created by Matt Darby on 30

Automatic generation of k-mesh.
Space group operators:
 irot       det(A)        alpha          n_x          n_y          n_z        tau_x        tau_y        tau_z
    1     1.000000     0.000000     1.000000     0.000000     0.000000     0.000000     0.000000     0.000000
    2     1.000000   120.000000     0.000000     0.000000    -1.000000     0.000000     0.000000     0.000000
    3     1.000000   120.000000     0.000000     0.000000     1.000000     0.000000     0.000000     0.000000
[...]

 FORCES acting on ions
    electron-ion (+dipol)            ewald-force                    non-local-force                 convergence-correction
   0.326E-04 0.324E-03 0.431E-02   0.176E-04 0.118E-04 0.165E-02   -.176E-19 0.648E-19 0.186E-18   -.746E-12 0.117E-10 -.972E-06
   0.326E-04 0.324E-03 0.431E-02   0.176E-04 0.118E-04 0.165E-02   0.375E-19 0.381E-20 -.559E-19   -.583E-12 0.118E-10 -.972E-06
   0.326E-04 0.324E-03 0.431E-02   0.176E-04 0.118E-04 0.165E-02   0.267E-19 0.771E-19 0.296E-18   -.555E-12 0.119E-10 -.972E-06
   0.326E-04 0.324E-03 0.431E-02   0.176E-04 0.118E-04 0.165E-02   0.345E-19 0.614E-19 -.207E-18   -.514E-12 0.118E-10 -.972E-06
   0.326E-04 0.324E-03 0.431E-02   0.176E-04 0.118E-04 0.165E-02   0.667E-19 0.453E-19 0.132E-18   -.589E-12 0.118E-10 -.972E-06
   0.326E-04 0.324E-03 0.431E-02   0.176E-04 0.118E-04 0.165E-02   0.193E-19 0.847E-20 0.239E-18   -.769E-12 0.115E-10 -.972E-06
   0.326E-04 0.324E-03 0.431E-02   0.176E-04 0.118E-04 0.165E-02   0.119E-19 0.280E-19 0.513E-18   -.475E-12 0.117E-10 -.972E-06
   0.326E-04 0.324E-03 0.431E-02   0.176E-04 0.118E-04 0.165E-02   -.720E-20 0.220E-19 0.566E-18   -.474E-12 0.117E-10 -.972E-06
   0.326E-04 0.324E-03 0.431E-02   0.176E-04 0.118E-04 0.165E-02   -.364E-19 0.847E-21 0.212E-18   -.621E-12 0.118E-10 -.972E-06
   0.326E-04 0.324E-03 0.431E-02   0.176E-04 0.118E-04 0.165E-02   -.146E-19 -.932E-20 0.740E-18   -.571E-12 0.117E-10 -.972E-06
   0.326E-04 0.324E-03 0.431E-02   0.176E-04 0.118E-04 0.165E-02   -.415E-19 -.339E-20 -.154E-18   -.838E-12 0.114E-10 -.972E-06
   0.326E-04 0.324E-03 0.431E-02   0.176E-04 0.118E-04 0.165E-02   -.476E-19 0.208E-19 -.464E-18   -.476E-12 0.115E-10 -.972E-06
   0.326E-04 0.324E-03 0.431E-02   0.176E-04 0.118E-04 0.165E-02   -.436E-19 0.318E-19 -.252E-18   -.428E-12 0.115E-10 -.972E-06
   0.326E-04 0.324E-03 0.431E-02   0.176E-04 0.118E-04 0.165E-02   -.292E-19 0.296E-19 -.327E-18   -.549E-12 0.115E-10 -.972E-06
   0.326E-04 0.324E-03 0.431E-02   0.176E-04 0.118E-04 0.165E-02   -.885E-19 0.932E-20 -.137E-18   -.631E-12 0.114E-10 -.972E-06
   0.326E-04 0.324E-03 0.431E-02   0.176E-04 0.118E-04 0.165E-02   0.580E-19 0.813E-19 -.257E-18   -.829E-12 0.113E-10 -.972E-06
   0.326E-04 0.324E-03 0.431E-02   0.176E-04 0.118E-04 0.165E-02   0.656E-19 0.851E-19 -.334E-18   -.559E-12 0.113E-10 -.972E-06
   0.326E-04 0.324E-03 0.431E-02   0.176E-04 0.118E-04 0.165E-02   0.714E-19 0.546E-19 -.440E-19   -.398E-12 0.114E-10 -.972E-06
   0.326E-04 0.324E-03 0.431E-02   0.176E-04 0.118E-04 0.165E-02   0.680E-19 0.584E-19 -.136E-19   -.555E-12 0.114E-10 -.972E-06
   0.326E-04 0.324E-03 0.431E-02   0.176E-04 0.118E-04 0.165E-02   0.284E-19 0.720E-19 -.256E-18   -.629E-12 0.113E-10 -.972E-06
   0.326E-04 0.324E-03 0.431E-02   0.176E-04 0.118E-04 0.165E-02   0.724E-19 0.805E-20 -.193E-18   -.792E-12 0.114E-10 -.972E-06
   0.326E-04 0.324E-03 0.431E-02   0.176E-04 0.118E-04 0.165E-02   0.889E-19 0.157E-19 -.232E-18   -.621E-12 0.115E-10 -.972E-06
   0.326E-04 0.324E-03 0.431E-02   0.176E-04 0.118E-04 0.165E-02   0.951E-19 -.974E-20 0.254E-18   -.432E-12 0.116E-10 -.972E-06
   0.326E-04 0.324E-03 0.431E-02   0.176E-04 0.118E-04 0.165E-02   0.985E-19 0.114E-19 -.593E-19   -.478E-12 0.115E-10 -.972E-06
   0.326E-04 0.324E-03 0.431E-02   0.176E-04 0.118E-04 0.165E-02   0.101E-18 0.305E-19 0.132E-18   -.583E-12 0.115E-10 -.972E-06
   -.579E-04 0.482E-04 0.956E+03   -.880E-05 -.591E-05 -.960E+03   0.576E-19 -.678E-19 0.386E+01   0.267E-11 -.165E-11 0.482E-05
   -.579E-04 0.482E-04 0.956E+03   -.880E-05 -.591E-05 -.960E+03   0.124E-17 0.620E-18 0.386E+01   0.272E-11 -.160E-11 0.482E-05
   -.579E-04 0.482E-04 0.956E+03   -.880E-05 -.591E-05 -.960E+03   0.440E-18 0.104E-17 0.386E+01   0.274E-11 -.159E-11 0.482E-05
   -.579E-04 0.482E-04 0.956E+03   -.880E-05 -.591E-05 -.960E+03   0.202E-17 0.518E-18 0.386E+01   0.275E-11 -.161E-11 0.482E-05
   -.579E-04 0.482E-04 0.956E+03   -.880E-05 -.591E-05 -.960E+03   0.772E-18 0.144E-17 0.386E+01   0.269E-11 -.166E-11 0.482E-05
   -.579E-04 0.482E-04 0.956E+03   -.880E-05 -.591E-05 -.960E+03   -.908E-18 0.146E-17 0.386E+01   0.268E-11 -.165E-11 0.482E-05
   -.579E-04 0.482E-04 0.956E+03   -.880E-05 -.591E-05 -.960E+03   -.298E-18 0.117E-17 0.386E+01   0.276E-11 -.158E-11 0.482E-05
   -.579E-04 0.482E-04 0.956E+03   -.880E-05 -.591E-05 -.960E+03   -.113E-17 0.141E-17 0.386E+01   0.272E-11 -.155E-11 0.482E-05
   -.579E-04 0.482E-04 0.956E+03   -.880E-05 -.591E-05 -.960E+03   -.342E-18 0.168E-17 0.386E+01   0.272E-11 -.157E-11 0.482E-05
   -.579E-04 0.482E-04 0.956E+03   -.880E-05 -.591E-05 -.960E+03   -.141E-17 0.213E-17 0.386E+01   0.268E-11 -.162E-11 0.482E-05
   -.579E-04 0.482E-04 0.956E+03   -.880E-05 -.591E-05 -.960E+03   0.667E-18 0.107E-17 0.386E+01   0.266E-11 -.167E-11 0.482E-05
   -.579E-04 0.482E-04 0.956E+03   -.880E-05 -.591E-05 -.960E+03   0.864E-18 0.180E-18 0.386E+01   0.278E-11 -.161E-11 0.482E-05
   -.579E-04 0.482E-04 0.956E+03   -.880E-05 -.591E-05 -.960E+03   0.108E-17 0.200E-18 0.386E+01   0.275E-11 -.163E-11 0.482E-05
   -.579E-04 0.482E-04 0.956E+03   -.880E-05 -.591E-05 -.960E+03   0.153E-17 0.115E-17 0.386E+01   0.272E-11 -.163E-11 0.482E-05
   -.579E-04 0.482E-04 0.956E+03   -.880E-05 -.591E-05 -.960E+03   0.952E-18 0.854E-18 0.386E+01   0.266E-11 -.165E-11 0.482E-05
   -.579E-04 0.482E-04 0.956E+03   -.880E-05 -.591E-05 -.960E+03   0.539E-18 0.891E-18 0.386E+01   0.266E-11 -.176E-11 0.482E-05
   -.579E-04 0.482E-04 0.956E+03   -.880E-05 -.591E-05 -.960E+03   0.549E-18 0.400E-18 0.386E+01   0.277E-11 -.172E-11 0.482E-05
   -.579E-04 0.482E-04 0.956E+03   -.880E-05 -.591E-05 -.960E+03   0.163E-18 0.420E-18 0.386E+01   0.276E-11 -.172E-11 0.482E-05
   -.579E-04 0.482E-04 0.956E+03   -.880E-05 -.591E-05 -.960E+03   0.302E-18 0.116E-17 0.386E+01   0.273E-11 -.172E-11 0.482E-05
   -.579E-04 0.482E-04 0.956E+03   -.880E-05 -.591E-05 -.960E+03   0.759E-18 0.935E-18 0.386E+01   0.266E-11 -.175E-11 0.482E-05
   -.579E-04 0.482E-04 0.956E+03   -.880E-05 -.591E-05 -.960E+03   0.420E-18 0.180E-18 0.386E+01   0.266E-11 -.174E-11 0.482E-05
   -.579E-04 0.482E-04 0.956E+03   -.880E-05 -.591E-05 -.960E+03   0.169E-19 0.796E-18 0.386E+01   0.272E-11 -.171E-11 0.482E-05
   -.579E-04 0.482E-04 0.956E+03   -.880E-05 -.591E-05 -.960E+03   0.508E-18 0.606E-18 0.386E+01   0.277E-11 -.172E-11 0.482E-05
   -.579E-04 0.482E-04 0.956E+03   -.880E-05 -.591E-05 -.960E+03   -.264E-18 0.745E-18 0.386E+01   0.276E-11 -.172E-11 0.482E-05
   -.579E-04 0.482E-04 0.956E+03   -.880E-05 -.591E-05 -.960E+03   0.138E-17 0.180E-18 0.386E+01   0.266E-11 -.174E-11 0.482E-05
   -.579E-04 0.482E-04 -.956E+03   -.880E-05 -.591E-05 0.960E+03   0.302E-18 -.105E-17 -.386E+01   0.265E-11 -.160E-11 -.560E-05
   -.579E-04 0.482E-04 -.956E+03   -.880E-05 -.591E-05 0.960E+03   0.803E-18 -.806E-18 -.386E+01   0.270E-11 -.155E-11 -.560E-05
   -.579E-04 0.482E-04 -.956E+03   -.880E-05 -.591E-05 0.960E+03   0.979E-18 -.593E-18 -.386E+01   0.275E-11 -.155E-11 -.560E-05
   -.579E-04 0.482E-04 -.956E+03   -.880E-05 -.591E-05 0.960E+03   0.122E-17 -.101E-17 -.386E+01   0.275E-11 -.158E-11 -.560E-05
   -.579E-04 0.482E-04 -.956E+03   -.880E-05 -.591E-05 0.960E+03   0.268E-18 -.949E-18 -.386E+01   0.268E-11 -.161E-11 -.560E-05
   -.579E-04 0.482E-04 -.956E+03   -.880E-05 -.591E-05 0.960E+03   -.329E-18 -.125E-18 -.386E+01   0.266E-11 -.163E-11 -.560E-05
   -.579E-04 0.482E-04 -.956E+03   -.880E-05 -.591E-05 0.960E+03   -.657E-18 -.383E-18 -.386E+01   0.275E-11 -.156E-11 -.560E-05
   -.579E-04 0.482E-04 -.956E+03   -.880E-05 -.591E-05 0.960E+03   -.840E-18 0.542E-19 -.386E+01   0.272E-11 -.153E-11 -.560E-05
   -.579E-04 0.482E-04 -.956E+03   -.880E-05 -.591E-05 0.960E+03   -.837E-18 0.661E-18 -.386E+01   0.272E-11 -.157E-11 -.560E-05
   -.579E-04 0.482E-04 -.956E+03   -.880E-05 -.591E-05 0.960E+03   -.861E-18 0.600E-18 -.386E+01   0.268E-11 -.162E-11 -.560E-05
   -.579E-04 0.482E-04 -.956E+03   -.880E-05 -.591E-05 0.960E+03   0.657E-18 0.911E-18 -.386E+01   0.266E-11 -.171E-11 -.560E-05
   -.579E-04 0.482E-04 -.956E+03   -.880E-05 -.591E-05 0.960E+03   0.100E-17 0.667E-18 -.386E+01   0.276E-11 -.166E-11 -.560E-05
   -.579E-04 0.482E-04 -.956E+03   -.880E-05 -.591E-05 0.960E+03   0.123E-17 0.153E-17 -.386E+01   0.274E-11 -.166E-11 -.560E-05
   -.579E-04 0.482E-04 -.956E+03   -.880E-05 -.591E-05 0.960E+03   0.150E-17 0.501E-18 -.386E+01   0.271E-11 -.166E-11 -.560E-05
   -.579E-04 0.482E-04 -.956E+03   -.880E-05 -.591E-05 0.960E+03   0.110E-17 0.315E-18 -.386E+01   0.267E-11 -.168E-11 -.560E-05
   -.579E-04 0.482E-04 -.956E+03   -.880E-05 -.591E-05 0.960E+03   0.390E-18 -.627E-18 -.386E+01   0.264E-11 -.177E-11 -.560E-05
   -.579E-04 0.482E-04 -.956E+03   -.880E-05 -.591E-05 0.960E+03   0.329E-18 -.125E-18 -.386E+01   0.275E-11 -.172E-11 -.560E-05
   -.579E-04 0.482E-04 -.956E+03   -.880E-05 -.591E-05 0.960E+03   0.190E-18 -.420E-18 -.386E+01   0.275E-11 -.172E-11 -.560E-05
   -.579E-04 0.482E-04 -.956E+03   -.880E-05 -.591E-05 0.960E+03   0.928E-18 -.349E-18 -.386E+01   0.273E-11 -.172E-11 -.560E-05
   -.579E-04 0.482E-04 -.956E+03   -.880E-05 -.591E-05 0.960E+03   0.119E-17 -.667E-18 -.386E+01   0.266E-11 -.174E-11 -.560E-05
   -.579E-04 0.482E-04 -.956E+03   -.880E-05 -.591E-05 0.960E+03   0.108E-18 -.143E-17 -.386E+01   0.264E-11 -.170E-11 -.560E-05
   -.579E-04 0.482E-04 -.956E+03   -.880E-05 -.591E-05 0.960E+03   0.678E-20 -.143E-17 -.386E+01   0.272E-11 -.166E-11 -.560E-05
   -.579E-04 0.482E-04 -.956E+03   -.880E-05 -.591E-05 0.960E+03   0.305E-18 -.137E-17 -.386E+01   0.277E-11 -.166E-11 -.560E-05
   -.579E-04 0.482E-04 -.956E+03   -.880E-05 -.591E-05 0.960E+03   0.678E-20 -.154E-17 -.386E+01   0.274E-11 -.167E-11 -.560E-05
   -.579E-04 0.482E-04 -.956E+03   -.880E-05 -.591E-05 0.960E+03   0.110E-17 -.124E-17 -.386E+01   0.266E-11 -.169E-11 -.560E-05
   -.208E-02 0.105E-01 0.102E+01   0.439E-13 -.574E-12 0.909E-12   0.206E-16 0.131E-16 -.884E-13   0.121E-09 0.206E-09 -.436E-04

 POSITION                                       TOTAL-FORCE (eV/Angst)
     -0.00000      1.80422      3.71976         0.000000      0.000000     -0.000000
      3.12500      1.80422      3.71976         0.000000      0.000000     -0.000000
      6.25000      1.80422      3.71976        -0.000000     -0.000000     -0.000000
      9.37500      1.80422      3.71976         0.000000     -0.000000     -0.000000
     12.50000      1.80422      3.71976         0.000000     -0.000000     -0.000000
     -1.56250      4.51055      3.71976        -0.000000     -0.000000     -0.000000
      1.56250      4.51055      3.71976        -0.000000     -0.000000     -0.000000
      4.68750      4.51055      3.71976         0.000000     -0.000000     -0.000000
      7.81250      4.51055      3.71976        -0.000000     -0.000000     -0.000000
     10.93750      4.51055      3.71976        -0.000000      0.000000     -0.000000
     -3.12500      7.21688      3.71976         0.000000      0.000000     -0.000000
     -0.00000      7.21688      3.71976         0.000000      0.000000     -0.000000
      3.12500      7.21688      3.71976         0.000000     -0.000000     -0.000000
      6.25000      7.21688      3.71976         0.000000      0.000000     -0.000000
      9.37500      7.21688      3.71976         0.000000      0.000000     -0.000000
     -4.68750      9.92321      3.71976         0.000000      0.000000     -0.000000
     -1.56250      9.92321      3.71976         0.000000      0.000000     -0.000000
      1.56250      9.92321      3.71976        -0.000000      0.000000     -0.000000
      4.68750      9.92321      3.71976         0.000000      0.000000     -0.000000
      7.81250      9.92321      3.71976         0.000000      0.000000     -0.000000
     -6.25000     12.62954      3.71976        -0.000000     -0.000000     -0.000000
     -3.12500     12.62954      3.71976        -0.000000      0.000000     -0.000000
     -0.00000     12.62954      3.71976         0.000000     -0.000000     -0.000000
      3.12500     12.62954      3.71976        -0.000000     -0.000000     -0.000000
      6.25000     12.62954      3.71976        -0.000000     -0.000000     -0.000000
      1.56250      0.90211      2.13776         0.000000     -0.000000      0.001376
      4.68750      0.90211      2.13776        -0.000000     -0.000000      0.001376
      7.81250      0.90211      2.13776         0.000000     -0.000000      0.001376
     10.93750      0.90211      2.13776         0.000000     -0.000000      0.001376
     14.06250      0.90211      2.13776        -0.000000     -0.000000      0.001376
      0.00000      3.60844      2.13776        -0.000000     -0.000000      0.001376
      3.12500      3.60844      2.13776        -0.000000     -0.000000      0.001376
      6.25000      3.60844      2.13776         0.000000     -0.000000      0.001376
      9.37500      3.60844      2.13776         0.000000     -0.000000      0.001376
     12.50000      3.60844      2.13776         0.000000     -0.000000      0.001376
     -1.56250      6.31477      2.13776         0.000000     -0.000000      0.001376
      1.56250      6.31477      2.13776         0.000000     -0.000000      0.001376
      4.68750      6.31477      2.13776         0.000000     -0.000000      0.001376
      7.81250      6.31477      2.13776         0.000000     -0.000000      0.001376
     10.93750      6.31477      2.13776         0.000000     -0.000000      0.001376
     -3.12500      9.02110      2.13776         0.000000      0.000000      0.001376
      0.00000      9.02110      2.13776         0.000000     -0.000000      0.001376
      3.12500      9.02110      2.13776         0.000000     -0.000000      0.001376
      6.25000      9.02110      2.13776        -0.000000     -0.000000      0.001376
      9.37500      9.02110      2.13776        -0.000000     -0.000000      0.001376
     -4.68750     11.72743      2.13776         0.000000      0.000000      0.001376
     -1.56250     11.72743      2.13776         0.000000     -0.000000      0.001376
      1.56250     11.72743      2.13776        -0.000000      0.000000      0.001376
      4.68750     11.72743      2.13776         0.000000      0.000000      0.001376
      7.81250     11.72743      2.13776         0.000000      0.000000      0.001376
      1.56250      0.90211      5.30172        -0.000000     -0.000000     -0.001376
      4.68750      0.90211      5.30172        -0.000000     -0.000000     -0.001376
      7.81250      0.90211      5.30172        -0.000000     -0.000000     -0.001376
     10.93750      0.90211      5.30172        -0.000000     -0.000000     -0.001376
     14.06250      0.90211      5.30172        -0.000000     -0.000000     -0.001376
      0.00000      3.60844      5.30172        -0.000000     -0.000000     -0.001376
      3.12500      3.60844      5.30172         0.000000     -0.000000     -0.001376
      6.25000      3.60844      5.30172         0.000000     -0.000000     -0.001376
      9.37500      3.60844      5.30172         0.000000     -0.000000     -0.001376
     12.50000      3.60844      5.30172        -0.000000     -0.000000     -0.001376
     -1.56250      6.31477      5.30172        -0.000000      0.000000     -0.001376
      1.56250      6.31477      5.30172         0.000000      0.000000     -0.001376
      4.68750      6.31477      5.30172        -0.000000      0.000000     -0.001376
      7.81250      6.31477      5.30172        -0.000000      0.000000     -0.001376
     10.93750      6.31477      5.30172        -0.000000      0.000000     -0.001376
     -3.12500      9.02110      5.30172        -0.000000      0.000000     -0.001376
      0.00000      9.02110      5.30172        -0.000000      0.000000     -0.001376
      3.12500      9.02110      5.30172        -0.000000      0.000000     -0.001376
      6.25000      9.02110      5.30172        -0.000000      0.000000     -0.001376
      9.37500      9.02110      5.30172        -0.000000      0.000000     -0.001376
     -4.68750     11.72743      5.30172        -0.000000      0.000000     -0.001376
     -1.56250     11.72743      5.30172        -0.000000      0.000000     -0.001376
      1.56250     11.72743      5.30172        -0.000000      0.000000     -0.001376
      4.68750     11.72743      5.30172        -0.000000      0.000000     -0.001376
      7.81250     11.72743      5.30172        -0.000000      0.000000     -0.001376
    total drift:                               -0.002079      0.010500      1.017086

  FREE ENERGIE OF THE ION-ELECTRON SYSTEM (eV)
  free  energy   TOTEN  =      -400.80534586 eV

  energy  without entropy=     -400.80534586  energy(sigma->0) =     -400.80534586

 reached required accuracy - stopping structural energy minimisation